200 3980 
1 9 1
1 45 1
1 118 1
1 49 1
1 131 1
1 129 1
1 165 1
1 4 1
1 15 1
1 162 1
1 52 1
1 3 1
1 151 1
1 63 1
1 81 1
1 130 1
1 12 1
1 37 1
1 20 1
1 178 1
1 138 1
1 48 1
1 125 1
1 8 1
1 109 1
1 174 1
1 173 1
1 160 1
1 191 1
1 34 1
1 6 1
1 32 1
1 116 1
1 19 1
1 11 1
1 39 1
1 122 1
1 167 1
1 145 1
1 154 1
1 121 1
1 47 1
2 6 1
2 88 1
2 120 1
2 67 1
2 9 1
2 175 1
2 189 1
2 190 1
2 173 1
2 184 1
2 110 1
2 132 1
2 74 1
2 123 1
2 10 1
2 85 1
2 16 1
2 146 1
2 158 1
2 195 1
2 38 1
2 188 1
2 129 1
2 70 1
2 91 1
2 141 1
2 51 1
2 121 1
2 108 1
2 126 1
2 200 1
2 65 1
2 68 1
2 78 1
2 135 1
2 71 1
2 49 1
2 113 1
2 95 1
2 109 1
2 76 1
2 59 1
2 66 1
3 14 1
3 62 1
3 102 1
3 87 1
3 187 1
3 139 1
3 124 1
3 157 1
3 7 1
3 193 1
3 68 1
3 131 1
3 47 1
3 77 1
3 67 1
3 89 1
3 39 1
3 56 1
3 198 1
3 145 1
3 166 1
3 81 1
3 161 1
3 111 1
3 61 1
3 66 1
3 60 1
3 194 1
3 114 1
3 155 1
3 146 1
3 65 1
3 152 1
3 147 1
3 54 1
3 82 1
3 167 1
3 104 1
4 160 1
4 194 1
4 46 1
4 20 1
4 191 1
4 31 1
4 103 1
4 99 1
4 107 1
4 22 1
4 68 1
4 55 1
4 38 1
4 87 1
4 133 1
4 40 1
4 197 1
4 148 1
4 34 1
4 166 1
4 105 1
4 57 1
4 123 1
4 106 1
4 37 1
4 66 1
4 161 1
4 23 1
4 186 1
4 134 1
4 58 1
4 164 1
4 196 1
4 125 1
4 162 1
4 157 1
4 43 1
4 28 1
4 19 1
4 145 1
4 183 1
5 170 1
5 118 1
5 178 1
5 48 1
5 120 1
5 92 1
5 158 1
5 89 1
5 96 1
5 103 1
5 40 1
5 125 1
5 190 1
5 106 1
5 113 1
5 15 1
5 56 1
5 186 1
5 72 1
5 183 1
5 165 1
5 192 1
5 122 1
5 73 1
5 123 1
5 45 1
5 100 1
5 20 1
5 26 1
5 141 1
5 41 1
5 138 1
5 185 1
5 132 1
5 153 1
5 79 1
5 12 1
5 44 1
5 121 1
5 127 1
5 128 1
5 93 1
5 78 1
5 76 1
5 152 1
5 111 1
5 189 1
6 177 1
6 12 1
6 174 1
6 122 1
6 111 1
6 189 1
6 82 1
6 167 1
6 181 1
6 157 1
6 53 1
6 26 1
6 156 1
6 41 1
6 102 1
6 48 1
6 66 1
6 97 1
6 171 1
6 113 1
6 144 1
6 11 1
6 180 1
6 103 1
6 55 1
6 96 1
6 105 1
6 20 1
6 154 1
6 196 1
6 33 1
6 104 1
6 76 1
6 88 1
6 86 1
7 76 1
7 28 1
7 117 1
7 52 1
7 135 1
7 166 1
7 19 1
7 25 1
7 111 1
7 50 1
7 118 1
7 73 1
7 51 1
7 99 1
7 177 1
7 164 1
7 161 1
7 192 1
7 26 1
7 103 1
7 92 1
7 86 1
7 88 1
7 46 1
7 153 1
7 120 1
7 23 1
7 18 1
7 57 1
7 16 1
7 149 1
7 112 1
7 9 1
7 41 1
7 187 1
7 89 1
7 60 1
7 21 1
7 74 1
7 40 1
7 11 1
7 151 1
7 159 1
7 157 1
8 32 1
8 100 1
8 194 1
8 122 1
8 120 1
8 135 1
8 187 1
8 106 1
8 131 1
8 118 1
8 177 1
8 47 1
8 44 1
8 163 1
8 17 1
8 166 1
8 190 1
8 139 1
8 73 1
8 90 1
8 43 1
8 124 1
8 141 1
8 50 1
8 103 1
8 154 1
8 26 1
9 118 1
9 172 1
9 162 1
9 73 1
9 96 1
9 174 1
9 101 1
9 71 1
9 190 1
9 178 1
9 197 1
9 135 1
9 131 1
9 53 1
9 184 1
9 189 1
9 122 1
9 59 1
9 107 1
9 66 1
9 121 1
9 124 1
9 34 1
9 47 1
9 115 1
9 106 1
9 199 1
9 194 1
9 15 1
9 95 1
9 156 1
9 158 1
9 168 1
9 108 1
9 177 1
9 83 1
9 80 1
9 64 1
9 69 1
9 141 1
9 28 1
9 167 1
9 93 1
9 128 1
9 57 1
10 179 1
10 72 1
10 88 1
10 134 1
10 18 1
10 199 1
10 162 1
10 192 1
10 91 1
10 99 1
10 27 1
10 154 1
10 200 1
10 147 1
10 171 1
10 77 1
10 166 1
10 173 1
10 189 1
10 198 1
10 25 1
10 185 1
10 149 1
10 129 1
10 167 1
10 138 1
10 31 1
10 126 1
10 81 1
10 183 1
10 57 1
10 119 1
10 49 1
10 52 1
10 158 1
10 11 1
10 61 1
11 165 1
11 77 1
11 81 1
11 130 1
11 176 1
11 166 1
11 22 1
11 42 1
11 69 1
11 114 1
11 186 1
11 56 1
11 53 1
11 159 1
11 116 1
11 106 1
11 71 1
11 92 1
11 90 1
11 198 1
11 108 1
11 184 1
11 179 1
11 171 1
11 126 1
11 113 1
11 161 1
11 70 1
11 61 1
11 23 1
11 147 1
11 129 1
11 89 1
11 93 1
11 153 1
12 164 1
12 136 1
12 143 1
12 77 1
12 132 1
12 71 1
12 154 1
12 137 1
12 48 1
12 31 1
12 73 1
12 124 1
12 114 1
12 121 1
12 123 1
12 169 1
12 173 1
12 18 1
12 160 1
12 174 1
12 94 1
12 36 1
12 88 1
12 57 1
12 189 1
12 166 1
12 87 1
12 158 1
12 59 1
12 152 1
12 28 1
12 153 1
12 188 1
12 83 1
12 138 1
12 107 1
12 157 1
13 124 1
13 122 1
13 151 1
13 82 1
13 135 1
13 132 1
13 99 1
13 171 1
13 191 1
13 29 1
13 158 1
13 187 1
13 175 1
13 40 1
13 87 1
13 184 1
13 123 1
13 84 1
13 14 1
13 101 1
13 176 1
13 181 1
13 97 1
13 80 1
13 198 1
13 133 1
13 131 1
13 50 1
13 69 1
13 182 1
13 128 1
13 145 1
13 39 1
14 126 1
14 16 1
14 113 1
14 93 1
14 89 1
14 196 1
14 174 1
14 184 1
14 43 1
14 68 1
14 64 1
14 130 1
14 178 1
14 72 1
14 95 1
14 80 1
14 103 1
14 166 1
14 35 1
14 165 1
14 125 1
14 17 1
14 78 1
14 114 1
14 97 1
14 149 1
15 99 1
15 130 1
15 18 1
15 149 1
15 145 1
15 174 1
15 36 1
15 199 1
15 55 1
15 40 1
15 54 1
15 198 1
15 28 1
15 22 1
15 64 1
15 42 1
15 80 1
15 165 1
15 176 1
15 152 1
15 105 1
15 20 1
15 189 1
15 122 1
15 56 1
15 39 1
15 194 1
15 62 1
15 113 1
15 94 1
15 190 1
15 51 1
15 148 1
16 120 1
16 69 1
16 145 1
16 92 1
16 146 1
16 41 1
16 99 1
16 25 1
16 163 1
16 105 1
16 144 1
16 132 1
16 167 1
16 157 1
16 84 1
16 46 1
16 55 1
16 101 1
16 122 1
16 156 1
16 158 1
16 113 1
16 82 1
16 81 1
16 171 1
16 44 1
16 33 1
16 28 1
16 165 1
16 164 1
16 53 1
16 20 1
16 124 1
16 131 1
17 163 1
17 146 1
17 200 1
17 148 1
17 186 1
17 30 1
17 74 1
17 108 1
17 177 1
17 26 1
17 113 1
17 169 1
17 99 1
17 159 1
17 19 1
17 176 1
17 151 1
17 97 1
17 134 1
17 187 1
17 115 1
17 90 1
17 135 1
17 182 1
17 138 1
17 123 1
17 173 1
17 93 1
17 117 1
17 44 1
17 46 1
17 32 1
17 161 1
17 149 1
17 56 1
17 198 1
17 136 1
17 119 1
18 157 1
18 45 1
18 127 1
18 26 1
18 144 1
18 91 1
18 169 1
18 148 1
18 96 1
18 118 1
18 194 1
18 57 1
18 117 1
18 99 1
18 69 1
18 171 1
18 48 1
18 129 1
18 151 1
18 163 1
18 72 1
18 54 1
18 123 1
18 60 1
18 95 1
18 20 1
18 55 1
18 71 1
18 43 1
18 90 1
19 165 1
19 159 1
19 198 1
19 120 1
19 141 1
19 96 1
19 35 1
19 109 1
19 168 1
19 26 1
19 104 1
19 63 1
19 145 1
19 127 1
19 76 1
19 192 1
19 72 1
19 24 1
19 151 1
19 59 1
19 175 1
19 55 1
19 196 1
19 44 1
19 106 1
19 108 1
19 31 1
19 57 1
19 60 1
19 199 1
19 30 1
19 185 1
20 31 1
20 147 1
20 48 1
20 91 1
20 137 1
20 39 1
20 176 1
20 49 1
20 108 1
20 77 1
20 123 1
20 60 1
20 155 1
20 52 1
20 146 1
20 165 1
20 168 1
20 167 1
20 84 1
20 105 1
20 182 1
20 127 1
20 143 1
20 116 1
20 102 1
20 38 1
20 50 1
20 126 1
20 192 1
20 106 1
20 199 1
20 136 1
20 173 1
20 113 1
20 163 1
20 130 1
20 44 1
20 132 1
20 193 1
20 35 1
20 118 1
20 157 1
20 117 1
21 93 1
21 104 1
21 147 1
21 63 1
21 172 1
21 139 1
21 90 1
21 79 1
21 55 1
21 134 1
21 92 1
21 175 1
21 128 1
21 62 1
21 111 1
21 57 1
21 97 1
21 94 1
21 178 1
21 75 1
21 174 1
21 153 1
21 89 1
21 131 1
21 95 1
21 123 1
21 43 1
21 121 1
21 140 1
21 164 1
21 103 1
21 191 1
22 39 1
22 41 1
22 101 1
22 185 1
22 145 1
22 32 1
22 127 1
22 152 1
22 156 1
22 157 1
22 78 1
22 92 1
22 37 1
22 151 1
22 104 1
22 167 1
22 149 1
22 182 1
22 113 1
22 30 1
22 166 1
22 181 1
22 114 1
23 117 1
23 53 1
23 132 1
23 183 1
23 57 1
23 145 1
23 106 1
23 166 1
23 133 1
23 93 1
23 43 1
23 169 1
23 61 1
23 69 1
23 84 1
23 153 1
23 128 1
23 85 1
23 119 1
23 161 1
23 28 1
23 175 1
23 107 1
23 129 1
23 173 1
23 184 1
23 77 1
23 110 1
23 164 1
23 66 1
23 196 1
23 126 1
23 108 1
23 188 1
23 105 1
23 73 1
24 81 1
24 105 1
24 171 1
24 165 1
24 189 1
24 139 1
24 79 1
24 160 1
24 61 1
24 121 1
24 47 1
24 167 1
24 183 1
24 132 1
24 35 1
24 28 1
24 48 1
24 59 1
24 146 1
24 178 1
24 78 1
24 33 1
24 99 1
24 60 1
24 170 1
24 88 1
24 74 1
24 68 1
24 197 1
24 112 1
24 75 1
24 50 1
24 128 1
24 34 1
24 116 1
24 164 1
25 75 1
25 63 1
25 78 1
25 59 1
25 92 1
25 58 1
25 56 1
25 90 1
25 33 1
25 200 1
25 74 1
25 180 1
25 98 1
25 44 1
25 62 1
25 185 1
25 189 1
25 29 1
25 45 1
25 46 1
25 91 1
25 66 1
25 54 1
25 106 1
25 61 1
25 177 1
25 71 1
25 172 1
25 153 1
25 52 1
25 48 1
25 166 1
25 37 1
25 70 1
26 33 1
26 107 1
26 86 1
26 89 1
26 113 1
26 58 1
26 138 1
26 191 1
26 116 1
26 151 1
26 136 1
26 114 1
26 80 1
26 61 1
26 154 1
26 190 1
26 62 1
26 71 1
26 193 1
26 174 1
26 135 1
26 68 1
26 95 1
26 165 1
26 66 1
26 72 1
26 65 1
26 122 1
26 119 1
26 74 1
26 83 1
26 97 1
26 82 1
26 41 1
26 104 1
26 63 1
26 184 1
27 171 1
27 79 1
27 37 1
27 101 1
27 150 1
27 196 1
27 91 1
27 28 1
27 162 1
27 199 1
27 161 1
27 67 1
27 184 1
27 35 1
27 185 1
27 200 1
27 116 1
27 134 1
27 131 1
27 39 1
27 152 1
27 188 1
27 183 1
27 192 1
27 99 1
27 154 1
27 34 1
27 45 1
27 108 1
27 29 1
27 179 1
27 73 1
27 182 1
27 41 1
27 137 1
28 90 1
28 29 1
28 72 1
28 188 1
28 197 1
28 98 1
28 69 1
28 51 1
28 95 1
28 76 1
28 115 1
28 73 1
28 125 1
28 86 1
28 82 1
28 196 1
28 143 1
28 101 1
28 40 1
28 30 1
28 169 1
28 119 1
28 166 1
28 63 1
28 58 1
28 81 1
28 36 1
28 118 1
28 85 1
28 66 1
28 88 1
28 152 1
28 135 1
28 87 1
28 134 1
28 112 1
28 107 1
28 150 1
29 92 1
29 199 1
29 165 1
29 133 1
29 32 1
29 61 1
29 119 1
29 94 1
29 186 1
29 114 1
29 195 1
29 149 1
29 53 1
29 130 1
29 49 1
29 185 1
29 124 1
29 169 1
29 107 1
29 34 1
29 56 1
29 41 1
29 72 1
29 167 1
29 111 1
29 158 1
29 155 1
29 128 1
29 178 1
29 38 1
29 159 1
29 163 1
29 85 1
29 33 1
29 120 1
29 180 1
30 92 1
30 132 1
30 57 1
30 131 1
30 197 1
30 199 1
30 55 1
30 168 1
30 137 1
30 88 1
30 104 1
30 139 1
30 70 1
30 194 1
30 94 1
30 103 1
30 72 1
30 105 1
30 123 1
30 98 1
30 63 1
30 165 1
30 53 1
30 150 1
30 91 1
30 174 1
30 99 1
30 67 1
30 54 1
30 79 1
30 152 1
30 198 1
30 160 1
30 187 1
30 163 1
30 78 1
30 49 1
30 65 1
30 128 1
31 137 1
31 132 1
31 131 1
31 45 1
31 53 1
31 91 1
31 123 1
31 139 1
31 101 1
31 163 1
31 152 1
31 71 1
31 153 1
31 81 1
31 184 1
31 158 1
31 52 1
31 149 1
31 40 1
31 95 1
31 84 1
31 98 1
31 190 1
31 86 1
31 109 1
31 114 1
31 88 1
31 96 1
31 39 1
31 55 1
32 162 1
32 163 1
32 37 1
32 151 1
32 137 1
32 92 1
32 133 1
32 165 1
32 104 1
32 115 1
32 126 1
32 192 1
32 78 1
32 127 1
32 156 1
32 71 1
32 132 1
32 123 1
32 128 1
32 130 1
32 118 1
32 141 1
32 46 1
32 182 1
32 187 1
32 197 1
32 116 1
32 52 1
32 68 1
32 35 1
32 150 1
32 87 1
32 164 1
32 153 1
32 143 1
32 148 1
33 181 1
33 184 1
33 34 1
33 111 1
33 162 1
33 112 1
33 57 1
33 138 1
33 39 1
33 48 1
33 103 1
33 63 1
33 70 1
33 191 1
33 200 1
33 41 1
33 169 1
33 188 1
33 163 1
33 116 1
33 117 1
33 115 1
33 123 1
33 96 1
33 119 1
33 84 1
33 100 1
33 52 1
33 67 1
33 151 1
33 109 1
33 142 1
33 105 1
34 176 1
34 142 1
34 88 1
34 116 1
34 65 1
34 53 1
34 160 1
34 169 1
34 170 1
34 115 1
34 199 1
34 164 1
34 192 1
34 157 1
34 93 1
34 197 1
34 148 1
34 51 1
34 84 1
34 67 1
34 153 1
34 40 1
34 200 1
34 196 1
34 191 1
34 159 1
34 162 1
34 104 1
34 140 1
34 187 1
34 58 1
34 92 1
34 50 1
34 144 1
35 45 1
35 113 1
35 186 1
35 72 1
35 103 1
35 130 1
35 89 1
35 194 1
35 148 1
35 99 1
35 190 1
35 71 1
35 87 1
35 173 1
35 102 1
35 174 1
35 122 1
35 187 1
35 38 1
35 199 1
35 127 1
35 105 1
35 159 1
35 179 1
35 183 1
35 94 1
35 82 1
35 81 1
36 142 1
36 182 1
36 91 1
36 176 1
36 76 1
36 100 1
36 186 1
36 64 1
36 57 1
36 172 1
36 60 1
36 158 1
36 55 1
36 160 1
36 113 1
36 161 1
36 65 1
36 82 1
36 77 1
36 73 1
36 44 1
36 114 1
36 129 1
36 49 1
36 125 1
36 105 1
36 50 1
36 70 1
36 169 1
36 37 1
36 139 1
36 56 1
36 110 1
36 149 1
37 191 1
37 84 1
37 66 1
37 92 1
37 82 1
37 177 1
37 113 1
37 142 1
37 71 1
37 47 1
37 56 1
37 195 1
37 124 1
37 68 1
37 89 1
37 86 1
37 196 1
37 70 1
37 131 1
37 62 1
37 45 1
37 152 1
37 87 1
37 186 1
37 187 1
37 85 1
37 117 1
37 126 1
37 147 1
37 132 1
37 67 1
37 153 1
37 79 1
37 137 1
37 118 1
37 200 1
37 192 1
37 163 1
37 130 1
37 42 1
37 58 1
37 88 1
37 171 1
38 60 1
38 98 1
38 89 1
38 76 1
38 103 1
38 72 1
38 125 1
38 170 1
38 78 1
38 157 1
38 161 1
38 152 1
38 96 1
38 40 1
38 200 1
38 94 1
38 164 1
38 141 1
38 52 1
38 105 1
38 121 1
38 122 1
38 171 1
38 93 1
38 108 1
38 179 1
38 197 1
38 130 1
38 174 1
38 86 1
38 57 1
38 176 1
38 39 1
38 64 1
38 134 1
38 113 1
38 142 1
38 67 1
38 145 1
38 92 1
38 124 1
39 56 1
39 174 1
39 64 1
39 176 1
39 171 1
39 172 1
39 100 1
39 42 1
39 104 1
39 62 1
39 185 1
39 95 1
39 96 1
39 73 1
39 141 1
39 40 1
39 153 1
39 198 1
39 89 1
39 80 1
39 55 1
39 117 1
39 146 1
39 51 1
39 121 1
39 138 1
39 187 1
39 192 1
39 200 1
39 84 1
40 81 1
40 91 1
40 186 1
40 149 1
40 136 1
40 123 1
40 180 1
40 76 1
40 153 1
40 159 1
40 55 1
40 197 1
40 172 1
40 113 1
40 165 1
40 179 1
40 128 1
40 115 1
40 67 1
40 166 1
40 68 1
40 56 1
40 195 1
40 78 1
40 94 1
40 59 1
40 155 1
40 184 1
40 102 1
40 90 1
40 45 1
40 143 1
40 103 1
40 133 1
41 52 1
41 137 1
41 131 1
41 71 1
41 73 1
41 191 1
41 145 1
41 152 1
41 125 1
41 72 1
41 188 1
41 49 1
41 198 1
41 141 1
41 62 1
41 124 1
41 102 1
41 101 1
41 98 1
41 182 1
41 69 1
41 155 1
41 164 1
41 118 1
41 158 1
41 100 1
41 193 1
41 194 1
41 151 1
41 162 1
42 181 1
42 153 1
42 133 1
42 128 1
42 53 1
42 160 1
42 111 1
42 124 1
42 167 1
42 99 1
42 139 1
42 62 1
42 61 1
42 107 1
42 119 1
42 137 1
42 151 1
42 98 1
42 161 1
42 74 1
42 125 1
42 108 1
42 186 1
43 190 1
43 53 1
43 107 1
43 63 1
43 83 1
43 176 1
43 46 1
43 97 1
43 141 1
43 160 1
43 119 1
43 75 1
43 81 1
43 131 1
43 128 1
43 77 1
43 187 1
43 87 1
43 54 1
43 132 1
43 164 1
43 159 1
43 126 1
43 80 1
43 111 1
43 79 1
43 89 1
43 185 1
43 156 1
43 147 1
43 114 1
43 174 1
43 94 1
43 199 1
44 110 1
44 123 1
44 105 1
44 150 1
44 115 1
44 82 1
44 183 1
44 177 1
44 93 1
44 113 1
44 80 1
44 72 1
44 61 1
44 79 1
44 160 1
44 60 1
44 81 1
44 49 1
44 107 1
44 168 1
44 73 1
44 178 1
44 137 1
44 181 1
44 50 1
44 136 1
44 170 1
44 192 1
44 154 1
44 114 1
44 189 1
44 100 1
44 75 1
44 122 1
44 71 1
45 180 1
45 107 1
45 158 1
45 154 1
45 153 1
45 86 1
45 77 1
45 173 1
45 114 1
45 98 1
45 91 1
45 52 1
45 126 1
45 140 1
45 155 1
45 65 1
45 134 1
45 157 1
45 190 1
45 197 1
45 63 1
45 88 1
45 70 1
45 147 1
45 151 1
45 181 1
45 142 1
45 169 1
45 99 1
45 132 1
45 186 1
45 81 1
45 51 1
45 115 1
45 84 1
45 89 1
45 165 1
46 153 1
46 197 1
46 164 1
46 61 1
46 186 1
46 115 1
46 63 1
46 116 1
46 131 1
46 185 1
46 99 1
46 150 1
46 56 1
46 196 1
46 183 1
46 188 1
46 66 1
46 200 1
46 180 1
46 190 1
46 105 1
46 149 1
46 144 1
46 118 1
46 169 1
46 113 1
46 156 1
46 85 1
46 192 1
46 184 1
47 142 1
47 110 1
47 83 1
47 64 1
47 197 1
47 143 1
47 124 1
47 183 1
47 127 1
47 59 1
47 82 1
47 190 1
47 184 1
47 106 1
47 126 1
47 94 1
47 129 1
47 67 1
47 164 1
47 63 1
47 84 1
47 123 1
47 122 1
47 69 1
47 173 1
47 97 1
47 179 1
47 171 1
47 200 1
47 153 1
47 174 1
47 146 1
47 178 1
47 74 1
48 177 1
48 107 1
48 123 1
48 54 1
48 69 1
48 193 1
48 192 1
48 134 1
48 133 1
48 59 1
48 122 1
48 189 1
48 162 1
48 182 1
48 131 1
48 138 1
48 195 1
48 128 1
48 72 1
48 179 1
48 73 1
48 185 1
48 113 1
48 84 1
48 150 1
48 99 1
48 53 1
48 71 1
48 183 1
48 85 1
48 121 1
48 181 1
49 195 1
49 178 1
49 90 1
49 112 1
49 182 1
49 72 1
49 186 1
49 58 1
49 52 1
49 73 1
49 119 1
49 196 1
49 151 1
49 97 1
49 179 1
49 155 1
49 69 1
49 174 1
49 103 1
49 180 1
49 68 1
49 138 1
49 61 1
49 125 1
49 137 1
49 130 1
49 87 1
49 80 1
50 156 1
50 158 1
50 81 1
50 157 1
50 56 1
50 61 1
50 60 1
50 110 1
50 119 1
50 163 1
50 87 1
50 192 1
50 181 1
50 155 1
50 153 1
50 55 1
50 120 1
50 75 1
50 175 1
50 177 1
50 115 1
50 101 1
50 92 1
50 135 1
50 200 1
50 67 1
50 185 1
50 178 1
50 53 1
50 74 1
50 188 1
50 139 1
51 186 1
51 145 1
51 95 1
51 78 1
51 69 1
51 169 1
51 62 1
51 92 1
51 178 1
51 58 1
51 102 1
51 114 1
51 195 1
51 172 1
51 117 1
51 161 1
51 133 1
51 118 1
51 81 1
51 106 1
51 150 1
51 120 1
51 116 1
51 85 1
51 86 1
51 154 1
51 167 1
51 77 1
51 176 1
51 163 1
51 149 1
51 110 1
52 136 1
52 139 1
52 57 1
52 113 1
52 143 1
52 59 1
52 53 1
52 79 1
52 95 1
52 115 1
52 171 1
52 58 1
52 73 1
52 162 1
52 125 1
52 96 1
52 189 1
52 194 1
52 124 1
52 163 1
52 123 1
52 190 1
52 173 1
52 112 1
52 67 1
52 97 1
52 164 1
52 104 1
53 68 1
53 175 1
53 121 1
53 69 1
53 75 1
53 143 1
53 172 1
53 200 1
53 161 1
53 177 1
53 147 1
53 72 1
53 153 1
53 60 1
53 180 1
53 199 1
53 192 1
53 197 1
53 78 1
53 181 1
53 183 1
53 196 1
53 118 1
53 116 1
53 182 1
53 124 1
53 122 1
53 138 1
53 97 1
53 61 1
53 120 1
53 155 1
53 83 1
53 85 1
53 66 1
54 154 1
54 167 1
54 78 1
54 116 1
54 101 1
54 129 1
54 153 1
54 152 1
54 82 1
54 133 1
54 182 1
54 81 1
54 65 1
54 55 1
54 56 1
54 92 1
54 73 1
54 158 1
54 184 1
54 159 1
54 193 1
54 128 1
54 61 1
54 140 1
54 176 1
54 170 1
54 97 1
54 119 1
54 84 1
54 142 1
54 63 1
54 191 1
54 189 1
54 108 1
54 110 1
54 118 1
54 198 1
54 124 1
54 98 1
55 155 1
55 181 1
55 122 1
55 153 1
55 183 1
55 107 1
55 117 1
55 144 1
55 78 1
55 171 1
55 110 1
55 89 1
55 73 1
55 152 1
55 108 1
55 191 1
55 74 1
55 188 1
55 141 1
55 148 1
55 90 1
55 68 1
56 151 1
56 125 1
56 62 1
56 190 1
56 140 1
56 131 1
56 199 1
56 81 1
56 163 1
56 84 1
56 193 1
56 65 1
56 184 1
56 114 1
56 189 1
56 161 1
56 107 1
56 79 1
56 165 1
56 71 1
56 139 1
56 59 1
56 162 1
56 101 1
56 103 1
56 93 1
56 135 1
57 166 1
57 109 1
57 163 1
57 195 1
57 145 1
57 111 1
57 102 1
57 113 1
57 186 1
57 176 1
57 159 1
57 141 1
57 73 1
57 155 1
57 116 1
57 78 1
57 199 1
57 185 1
57 158 1
57 110 1
57 178 1
57 91 1
57 126 1
57 154 1
57 70 1
57 179 1
57 115 1
57 161 1
57 81 1
57 143 1
57 146 1
57 90 1
57 105 1
58 71 1
58 101 1
58 59 1
58 83 1
58 113 1
58 186 1
58 132 1
58 130 1
58 155 1
58 68 1
58 84 1
58 147 1
58 168 1
58 107 1
58 99 1
58 177 1
58 110 1
58 94 1
58 188 1
58 176 1
58 149 1
58 173 1
58 172 1
58 187 1
58 63 1
58 140 1
58 185 1
58 103 1
58 77 1
58 193 1
58 116 1
58 160 1
58 97 1
58 139 1
59 85 1
59 100 1
59 76 1
59 148 1
59 120 1
59 165 1
59 118 1
59 158 1
59 184 1
59 141 1
59 179 1
59 156 1
59 168 1
59 173 1
59 78 1
59 146 1
59 64 1
59 138 1
59 65 1
59 127 1
59 114 1
59 140 1
59 113 1
59 187 1
59 86 1
59 196 1
59 197 1
60 94 1
60 80 1
60 128 1
60 171 1
60 109 1
60 87 1
60 77 1
60 137 1
60 143 1
60 124 1
60 111 1
60 178 1
60 140 1
60 149 1
60 123 1
60 190 1
60 189 1
60 99 1
60 136 1
61 166 1
61 103 1
61 140 1
61 62 1
61 115 1
61 66 1
61 146 1
61 158 1
61 76 1
61 185 1
61 196 1
61 80 1
61 85 1
61 108 1
61 200 1
61 102 1
61 177 1
61 142 1
61 107 1
61 155 1
61 90 1
61 64 1
61 173 1
61 134 1
61 118 1
61 84 1
61 197 1
61 162 1
61 152 1
61 111 1
61 75 1
61 95 1
61 86 1
62 160 1
62 142 1
62 70 1
62 200 1
62 141 1
62 122 1
62 146 1
62 138 1
62 165 1
62 79 1
62 174 1
62 196 1
62 66 1
62 87 1
62 105 1
62 95 1
62 83 1
62 126 1
62 159 1
62 140 1
62 91 1
62 182 1
62 84 1
62 172 1
62 135 1
62 113 1
62 145 1
62 74 1
62 186 1
62 69 1
62 136 1
62 163 1
62 73 1
62 80 1
62 132 1
62 178 1
62 119 1
62 100 1
62 153 1
62 185 1
63 195 1
63 79 1
63 192 1
63 81 1
63 183 1
63 180 1
63 181 1
63 137 1
63 138 1
63 125 1
63 155 1
63 185 1
63 97 1
63 92 1
63 163 1
63 100 1
63 122 1
63 82 1
63 135 1
63 86 1
63 111 1
64 102 1
64 149 1
64 147 1
64 109 1
64 156 1
64 68 1
64 116 1
64 168 1
64 185 1
64 144 1
64 80 1
64 89 1
64 65 1
64 71 1
64 76 1
64 194 1
64 90 1
64 112 1
64 133 1
64 163 1
64 177 1
64 85 1
64 122 1
64 193 1
64 88 1
65 113 1
65 180 1
65 199 1
65 162 1
65 169 1
65 69 1
65 132 1
65 117 1
65 158 1
65 183 1
65 95 1
65 66 1
65 71 1
65 74 1
65 110 1
65 140 1
65 68 1
65 80 1
65 136 1
65 170 1
65 124 1
65 166 1
65 81 1
65 147 1
65 187 1
65 160 1
65 99 1
65 135 1
65 91 1
65 125 1
65 103 1
65 192 1
65 90 1
65 146 1
65 151 1
65 138 1
66 161 1
66 97 1
66 162 1
66 83 1
66 143 1
66 105 1
66 188 1
66 75 1
66 116 1
66 157 1
66 112 1
66 138 1
66 148 1
66 128 1
66 102 1
66 191 1
66 169 1
66 185 1
66 198 1
66 73 1
66 98 1
67 82 1
67 72 1
67 144 1
67 134 1
67 110 1
67 155 1
67 133 1
67 172 1
67 128 1
67 117 1
67 181 1
67 189 1
67 158 1
67 103 1
67 75 1
67 191 1
67 78 1
67 169 1
67 71 1
67 165 1
67 137 1
67 168 1
67 150 1
67 180 1
67 114 1
67 141 1
67 166 1
67 151 1
67 123 1
67 91 1
68 198 1
68 191 1
68 118 1
68 140 1
68 177 1
68 115 1
68 111 1
68 200 1
68 158 1
68 136 1
68 145 1
68 143 1
68 192 1
68 195 1
68 102 1
68 135 1
68 176 1
68 71 1
68 113 1
68 137 1
68 188 1
68 94 1
68 132 1
68 149 1
68 121 1
68 128 1
68 196 1
69 122 1
69 195 1
69 140 1
69 76 1
69 166 1
69 164 1
69 184 1
69 168 1
69 104 1
69 146 1
69 84 1
69 102 1
69 75 1
69 124 1
69 109 1
69 139 1
69 161 1
69 111 1
69 185 1
69 118 1
69 186 1
69 150 1
69 193 1
69 78 1
69 174 1
69 73 1
69 143 1
69 177 1
70 120 1
70 75 1
70 110 1
70 137 1
70 90 1
70 163 1
70 109 1
70 176 1
70 113 1
70 156 1
70 106 1
70 151 1
70 141 1
70 164 1
70 116 1
70 114 1
70 98 1
70 185 1
70 84 1
70 200 1
70 143 1
70 140 1
71 166 1
71 183 1
71 143 1
71 87 1
71 81 1
71 77 1
71 109 1
71 124 1
71 141 1
71 173 1
71 160 1
71 154 1
71 151 1
71 99 1
71 131 1
71 75 1
71 97 1
71 111 1
71 189 1
72 123 1
72 193 1
72 77 1
72 189 1
72 199 1
72 183 1
72 128 1
72 82 1
72 194 1
72 144 1
72 74 1
72 162 1
72 174 1
72 171 1
72 188 1
72 172 1
72 152 1
72 100 1
72 129 1
72 97 1
72 178 1
72 146 1
72 76 1
72 107 1
72 156 1
72 104 1
72 187 1
73 135 1
73 113 1
73 166 1
73 81 1
73 126 1
73 87 1
73 141 1
73 127 1
73 193 1
73 121 1
73 161 1
73 93 1
73 157 1
73 167 1
73 184 1
73 115 1
73 169 1
73 133 1
73 145 1
73 89 1
73 162 1
73 187 1
73 134 1
73 82 1
73 130 1
73 120 1
73 172 1
74 172 1
74 168 1
74 82 1
74 191 1
74 118 1
74 165 1
74 130 1
74 184 1
74 164 1
74 76 1
74 128 1
74 197 1
74 81 1
74 75 1
74 86 1
74 149 1
74 127 1
74 161 1
74 147 1
74 120 1
74 78 1
74 196 1
74 92 1
74 192 1
74 80 1
74 190 1
75 135 1
75 122 1
75 82 1
75 118 1
75 189 1
75 193 1
75 79 1
75 150 1
75 80 1
75 139 1
75 185 1
75 159 1
75 170 1
75 142 1
75 81 1
75 95 1
75 168 1
75 120 1
75 101 1
75 98 1
75 108 1
75 186 1
75 104 1
75 155 1
75 162 1
75 141 1
75 161 1
75 195 1
75 197 1
75 127 1
75 130 1
75 124 1
75 105 1
76 114 1
76 127 1
76 81 1
76 128 1
76 107 1
76 119 1
76 122 1
76 113 1
76 138 1
76 140 1
76 111 1
76 184 1
76 156 1
76 105 1
76 124 1
77 102 1
77 192 1
77 196 1
77 124 1
77 157 1
77 95 1
77 83 1
77 182 1
77 94 1
77 171 1
77 110 1
77 143 1
77 136 1
77 131 1
77 156 1
77 177 1
77 162 1
77 98 1
77 87 1
77 122 1
77 88 1
77 78 1
77 132 1
77 105 1
77 164 1
77 104 1
77 165 1
77 152 1
77 130 1
77 90 1
77 92 1
77 174 1
77 125 1
77 191 1
77 97 1
78 162 1
78 86 1
78 99 1
78 172 1
78 143 1
78 133 1
78 175 1
78 114 1
78 152 1
78 178 1
78 91 1
78 109 1
78 150 1
78 177 1
78 81 1
78 115 1
78 92 1
78 138 1
78 149 1
78 163 1
78 104 1
78 112 1
78 155 1
78 195 1
78 136 1
78 108 1
78 125 1
79 142 1
79 193 1
79 176 1
79 162 1
79 92 1
79 112 1
79 123 1
79 183 1
79 174 1
79 173 1
79 85 1
79 143 1
79 100 1
79 164 1
79 124 1
79 196 1
79 154 1
79 187 1
79 147 1
79 144 1
79 161 1
79 126 1
79 188 1
79 182 1
79 109 1
80 182 1
80 105 1
80 170 1
80 155 1
80 164 1
80 134 1
80 108 1
80 99 1
80 106 1
80 187 1
80 162 1
80 120 1
80 177 1
80 127 1
80 200 1
80 158 1
80 140 1
80 192 1
80 195 1
80 171 1
80 199 1
80 174 1
80 124 1
80 89 1
80 91 1
80 133 1
80 148 1
80 111 1
81 181 1
81 111 1
81 83 1
81 102 1
81 147 1
81 101 1
81 86 1
81 166 1
81 178 1
81 91 1
81 108 1
81 99 1
81 148 1
81 110 1
81 180 1
81 198 1
81 121 1
81 104 1
82 153 1
82 112 1
82 119 1
82 178 1
82 148 1
82 142 1
82 196 1
82 91 1
82 101 1
82 128 1
82 88 1
82 120 1
82 99 1
82 197 1
82 83 1
82 93 1
82 181 1
82 175 1
82 165 1
82 179 1
82 130 1
82 168 1
82 156 1
82 108 1
82 192 1
82 114 1
82 104 1
82 199 1
82 163 1
83 176 1
83 168 1
83 177 1
83 141 1
83 119 1
83 172 1
83 193 1
83 158 1
83 140 1
83 134 1
83 181 1
83 129 1
83 143 1
83 99 1
83 94 1
83 110 1
83 92 1
83 194 1
83 190 1
83 196 1
83 114 1
83 189 1
83 153 1
83 111 1
83 183 1
83 148 1
83 105 1
84 86 1
84 187 1
84 180 1
84 159 1
84 144 1
84 117 1
84 192 1
84 170 1
84 94 1
84 125 1
84 171 1
84 139 1
84 186 1
84 89 1
84 166 1
84 101 1
84 189 1
84 165 1
84 128 1
84 174 1
85 144 1
85 171 1
85 128 1
85 93 1
85 161 1
85 140 1
85 134 1
85 169 1
85 109 1
85 114 1
85 110 1
85 164 1
85 129 1
85 118 1
85 167 1
85 183 1
85 101 1
85 187 1
85 100 1
85 195 1
85 105 1
86 101 1
86 123 1
86 124 1
86 195 1
86 119 1
86 160 1
86 112 1
86 144 1
86 143 1
86 102 1
86 196 1
86 166 1
86 130 1
86 153 1
86 183 1
86 145 1
86 163 1
86 177 1
86 164 1
86 150 1
86 93 1
86 135 1
86 110 1
86 198 1
86 193 1
87 127 1
87 143 1
87 108 1
87 106 1
87 94 1
87 110 1
87 111 1
87 117 1
87 144 1
87 154 1
87 142 1
87 107 1
87 186 1
87 147 1
87 194 1
87 158 1
87 95 1
87 121 1
87 166 1
87 123 1
87 93 1
87 100 1
88 172 1
88 128 1
88 157 1
88 185 1
88 151 1
88 126 1
88 131 1
88 200 1
88 119 1
88 197 1
88 154 1
88 195 1
88 104 1
88 95 1
88 142 1
88 109 1
88 150 1
88 146 1
88 114 1
88 155 1
88 140 1
88 191 1
89 120 1
89 102 1
89 96 1
89 149 1
89 170 1
89 146 1
89 113 1
89 160 1
89 128 1
89 93 1
89 124 1
89 178 1
89 198 1
89 108 1
89 196 1
89 140 1
89 130 1
89 103 1
89 184 1
89 107 1
89 150 1
89 158 1
89 193 1
89 172 1
89 127 1
89 111 1
89 166 1
89 92 1
90 154 1
90 161 1
90 125 1
90 159 1
90 171 1
90 179 1
90 130 1
90 153 1
90 141 1
90 176 1
90 98 1
90 152 1
90 168 1
90 106 1
90 197 1
90 132 1
90 167 1
90 181 1
90 187 1
90 146 1
90 114 1
90 177 1
90 103 1
90 196 1
90 131 1
90 138 1
90 134 1
91 129 1
91 190 1
91 124 1
91 167 1
91 172 1
91 180 1
91 109 1
91 149 1
91 122 1
91 114 1
91 93 1
91 166 1
91 193 1
91 135 1
91 174 1
91 136 1
91 145 1
91 160 1
91 98 1
91 178 1
91 189 1
91 179 1
92 148 1
92 196 1
92 191 1
92 93 1
92 185 1
92 149 1
92 175 1
92 100 1
92 187 1
92 171 1
92 142 1
92 160 1
92 128 1
92 173 1
92 186 1
92 162 1
92 143 1
92 184 1
92 190 1
92 136 1
92 127 1
92 119 1
92 129 1
92 154 1
92 95 1
93 169 1
93 186 1
93 146 1
93 134 1
93 157 1
93 189 1
93 141 1
93 163 1
93 192 1
93 131 1
93 151 1
93 187 1
93 198 1
93 195 1
93 155 1
93 121 1
93 144 1
93 118 1
93 127 1
93 165 1
94 105 1
94 148 1
94 99 1
94 146 1
94 159 1
94 96 1
94 143 1
94 135 1
94 151 1
94 182 1
94 196 1
94 147 1
94 144 1
94 119 1
94 194 1
94 154 1
95 128 1
95 101 1
95 157 1
95 197 1
95 196 1
95 162 1
95 97 1
95 136 1
95 155 1
95 189 1
95 104 1
95 113 1
95 107 1
95 166 1
95 108 1
95 164 1
95 194 1
95 109 1
95 114 1
95 168 1
95 118 1
96 105 1
96 117 1
96 118 1
96 131 1
96 175 1
96 136 1
96 171 1
96 144 1
96 142 1
96 152 1
96 143 1
96 110 1
96 99 1
96 112 1
96 126 1
96 114 1
96 125 1
96 132 1
96 156 1
97 133 1
97 100 1
97 155 1
97 138 1
97 109 1
97 159 1
97 150 1
97 117 1
97 148 1
97 179 1
97 194 1
97 139 1
97 142 1
97 157 1
97 113 1
97 190 1
97 181 1
97 199 1
97 160 1
97 191 1
98 148 1
98 193 1
98 165 1
98 104 1
98 131 1
98 121 1
98 130 1
98 113 1
98 133 1
98 134 1
98 164 1
98 196 1
98 140 1
98 132 1
98 150 1
98 116 1
98 186 1
98 181 1
98 119 1
98 161 1
98 135 1
98 173 1
98 141 1
99 189 1
99 187 1
99 127 1
99 166 1
99 176 1
99 155 1
99 150 1
99 141 1
99 103 1
99 196 1
99 116 1
99 200 1
99 193 1
99 188 1
100 152 1
100 144 1
100 131 1
100 147 1
100 173 1
100 156 1
100 196 1
100 161 1
100 132 1
100 162 1
100 126 1
100 128 1
100 113 1
100 167 1
100 104 1
100 134 1
100 174 1
100 116 1
101 182 1
101 159 1
101 106 1
101 111 1
101 158 1
101 176 1
101 115 1
101 161 1
101 165 1
101 177 1
101 130 1
101 197 1
101 116 1
101 173 1
101 147 1
101 193 1
101 170 1
101 139 1
102 135 1
102 178 1
102 128 1
102 172 1
102 168 1
102 138 1
102 154 1
102 162 1
102 153 1
102 190 1
102 194 1
102 150 1
102 186 1
103 167 1
103 106 1
103 169 1
103 199 1
103 118 1
103 113 1
103 172 1
103 200 1
103 197 1
103 141 1
103 148 1
103 129 1
103 139 1
103 151 1
103 130 1
103 149 1
103 192 1
103 123 1
103 143 1
103 142 1
103 132 1
103 182 1
103 127 1
103 147 1
104 106 1
104 139 1
104 146 1
104 110 1
104 179 1
104 107 1
104 155 1
104 117 1
104 134 1
104 189 1
104 167 1
104 161 1
104 138 1
104 193 1
104 143 1
105 122 1
105 181 1
105 150 1
105 197 1
105 131 1
105 129 1
105 176 1
105 177 1
105 163 1
105 186 1
105 167 1
105 162 1
105 182 1
105 151 1
105 180 1
105 106 1
105 123 1
105 193 1
105 200 1
105 169 1
105 194 1
105 112 1
106 111 1
106 164 1
106 110 1
106 162 1
106 156 1
106 144 1
106 122 1
106 137 1
106 149 1
106 132 1
106 147 1
106 195 1
106 107 1
106 193 1
106 114 1
106 154 1
106 177 1
106 167 1
106 186 1
106 198 1
106 118 1
106 188 1
107 108 1
107 138 1
107 123 1
107 172 1
107 131 1
107 191 1
107 113 1
107 132 1
107 137 1
107 177 1
107 183 1
107 146 1
107 178 1
107 125 1
107 135 1
107 179 1
107 142 1
107 140 1
107 182 1
107 116 1
107 195 1
107 164 1
107 143 1
107 187 1
107 114 1
108 146 1
108 171 1
108 185 1
108 111 1
108 143 1
108 133 1
108 142 1
108 149 1
108 114 1
108 139 1
108 199 1
108 175 1
108 193 1
108 157 1
109 189 1
109 130 1
109 125 1
109 170 1
109 140 1
109 111 1
109 199 1
109 114 1
109 193 1
109 146 1
109 183 1
109 118 1
109 154 1
109 128 1
109 167 1
109 160 1
109 163 1
109 156 1
109 164 1
109 178 1
110 135 1
110 154 1
110 190 1
110 136 1
110 181 1
110 200 1
110 172 1
110 156 1
110 195 1
110 178 1
110 164 1
110 186 1
110 194 1
110 168 1
110 122 1
110 185 1
110 131 1
110 169 1
110 119 1
111 167 1
111 135 1
111 125 1
111 165 1
111 113 1
111 138 1
111 179 1
111 146 1
111 132 1
111 168 1
111 199 1
111 156 1
111 122 1
111 187 1
111 161 1
111 164 1
111 130 1
111 140 1
111 186 1
111 143 1
112 199 1
112 180 1
112 179 1
112 160 1
112 155 1
112 158 1
112 143 1
112 157 1
112 119 1
112 196 1
112 118 1
112 161 1
112 153 1
112 132 1
112 156 1
113 188 1
113 155 1
113 199 1
113 125 1
113 193 1
113 119 1
113 137 1
113 146 1
113 142 1
113 168 1
113 182 1
113 114 1
113 186 1
113 127 1
113 144 1
113 141 1
113 171 1
114 120 1
114 127 1
114 153 1
114 194 1
114 167 1
114 174 1
114 186 1
114 161 1
114 139 1
114 143 1
114 157 1
114 178 1
114 199 1
114 145 1
114 191 1
115 191 1
115 158 1
115 189 1
115 152 1
115 200 1
115 139 1
115 172 1
115 175 1
115 123 1
115 143 1
115 119 1
115 180 1
116 183 1
116 176 1
116 180 1
116 130 1
116 149 1
116 138 1
116 161 1
116 195 1
116 135 1
116 200 1
116 163 1
116 150 1
116 172 1
116 134 1
116 178 1
116 129 1
116 167 1
116 181 1
116 156 1
116 194 1
116 187 1
116 127 1
116 125 1
116 173 1
117 198 1
117 176 1
117 173 1
117 154 1
117 120 1
117 133 1
117 185 1
117 167 1
117 171 1
117 129 1
117 137 1
117 182 1
117 177 1
117 172 1
117 183 1
117 179 1
117 153 1
117 170 1
117 127 1
118 153 1
118 195 1
118 151 1
118 133 1
118 169 1
118 181 1
118 174 1
118 176 1
118 123 1
118 189 1
118 163 1
118 137 1
118 164 1
118 184 1
118 135 1
118 178 1
119 163 1
119 127 1
119 137 1
119 194 1
119 184 1
119 160 1
119 144 1
119 196 1
119 147 1
119 154 1
119 199 1
119 136 1
119 129 1
119 175 1
119 148 1
119 200 1
120 143 1
120 125 1
120 190 1
120 136 1
120 189 1
120 181 1
120 164 1
120 158 1
120 184 1
120 194 1
120 180 1
120 167 1
121 178 1
121 169 1
121 136 1
121 139 1
121 156 1
121 188 1
121 138 1
121 125 1
121 142 1
121 198 1
121 186 1
121 151 1
121 196 1
121 200 1
121 195 1
122 148 1
122 159 1
122 149 1
122 198 1
122 180 1
122 146 1
122 153 1
122 167 1
122 154 1
122 171 1
122 147 1
122 123 1
122 136 1
122 129 1
122 135 1
123 131 1
123 185 1
123 192 1
123 160 1
123 137 1
123 142 1
123 190 1
123 184 1
123 176 1
123 139 1
123 181 1
123 128 1
123 189 1
123 145 1
123 155 1
124 138 1
124 126 1
124 198 1
124 171 1
124 183 1
124 187 1
124 200 1
124 197 1
124 125 1
124 142 1
124 164 1
124 181 1
124 185 1
124 199 1
124 170 1
124 194 1
125 195 1
125 145 1
125 135 1
125 192 1
125 180 1
125 198 1
125 161 1
125 149 1
125 134 1
125 130 1
125 170 1
126 164 1
126 172 1
126 158 1
126 146 1
126 192 1
126 168 1
126 189 1
126 153 1
126 127 1
126 165 1
126 186 1
126 197 1
127 189 1
127 161 1
127 162 1
127 183 1
127 153 1
127 173 1
127 180 1
127 138 1
127 165 1
127 190 1
127 150 1
128 134 1
128 191 1
128 160 1
128 139 1
128 154 1
128 177 1
128 137 1
128 188 1
128 161 1
128 180 1
128 184 1
128 187 1
128 129 1
128 141 1
128 162 1
129 142 1
129 178 1
129 149 1
129 172 1
129 171 1
129 188 1
129 133 1
129 148 1
129 139 1
129 179 1
129 159 1
129 152 1
129 170 1
130 131 1
130 162 1
130 169 1
130 139 1
130 196 1
130 191 1
130 190 1
130 176 1
130 142 1
130 170 1
130 152 1
130 140 1
130 165 1
130 136 1
130 182 1
131 175 1
131 186 1
131 188 1
131 198 1
131 152 1
131 176 1
131 154 1
131 135 1
131 189 1
131 171 1
131 165 1
131 134 1
132 197 1
132 198 1
132 194 1
132 141 1
132 144 1
132 180 1
133 178 1
133 138 1
133 160 1
133 159 1
133 168 1
133 154 1
133 158 1
133 183 1
133 144 1
134 155 1
134 159 1
134 162 1
134 184 1
134 167 1
134 158 1
134 151 1
134 168 1
134 177 1
134 145 1
135 141 1
135 175 1
135 146 1
135 153 1
135 174 1
135 136 1
135 177 1
135 188 1
135 198 1
135 152 1
135 192 1
135 193 1
135 184 1
136 153 1
136 184 1
136 181 1
136 149 1
136 146 1
136 170 1
136 141 1
136 182 1
137 145 1
137 189 1
137 194 1
137 173 1
137 138 1
137 159 1
137 186 1
137 180 1
137 179 1
137 196 1
137 171 1
137 157 1
137 139 1
138 167 1
138 197 1
138 180 1
138 171 1
138 192 1
138 146 1
138 165 1
138 199 1
138 194 1
138 140 1
138 198 1
138 142 1
138 188 1
138 154 1
139 196 1
139 140 1
139 190 1
139 144 1
139 183 1
139 158 1
139 146 1
139 200 1
139 171 1
139 170 1
139 168 1
139 182 1
140 186 1
140 192 1
140 166 1
140 157 1
140 164 1
140 177 1
140 159 1
141 198 1
141 173 1
141 192 1
141 168 1
141 174 1
141 148 1
141 156 1
141 162 1
141 143 1
141 164 1
141 179 1
142 180 1
142 164 1
142 179 1
142 191 1
142 194 1
142 148 1
142 178 1
142 161 1
142 144 1
142 173 1
142 198 1
142 193 1
142 187 1
143 176 1
143 183 1
143 156 1
143 153 1
143 147 1
143 198 1
143 167 1
143 188 1
143 161 1
143 175 1
144 198 1
144 166 1
144 186 1
144 169 1
144 177 1
144 160 1
144 164 1
144 192 1
144 154 1
144 182 1
145 186 1
145 189 1
145 162 1
145 174 1
145 151 1
145 161 1
145 195 1
145 160 1
145 187 1
145 170 1
146 147 1
146 199 1
146 196 1
146 171 1
146 176 1
146 151 1
146 186 1
146 198 1
146 166 1
146 169 1
146 153 1
146 157 1
147 179 1
147 176 1
147 199 1
147 168 1
147 177 1
147 197 1
147 151 1
147 149 1
147 155 1
147 154 1
147 158 1
148 160 1
148 193 1
148 197 1
148 183 1
148 161 1
148 188 1
148 171 1
148 196 1
148 194 1
148 178 1
148 195 1
149 170 1
149 191 1
149 174 1
149 152 1
149 168 1
149 192 1
149 161 1
149 200 1
149 169 1
149 195 1
149 165 1
149 156 1
149 155 1
149 182 1
149 196 1
149 153 1
149 163 1
150 178 1
150 164 1
150 185 1
150 171 1
150 157 1
150 173 1
150 177 1
150 160 1
150 181 1
151 198 1
151 152 1
151 157 1
151 200 1
151 171 1
151 193 1
151 164 1
151 191 1
151 166 1
151 161 1
151 155 1
152 176 1
152 173 1
152 164 1
152 197 1
152 187 1
152 189 1
152 186 1
152 163 1
152 175 1
152 168 1
153 197 1
153 162 1
153 174 1
153 173 1
153 190 1
153 165 1
153 169 1
153 172 1
153 199 1
154 157 1
154 182 1
154 163 1
154 164 1
154 176 1
154 175 1
154 167 1
154 177 1
154 200 1
155 180 1
155 184 1
155 183 1
155 157 1
155 191 1
155 162 1
155 176 1
155 194 1
156 179 1
156 163 1
156 173 1
156 182 1
156 193 1
156 166 1
156 183 1
156 172 1
156 198 1
156 161 1
157 175 1
157 172 1
157 197 1
157 169 1
157 188 1
157 162 1
158 176 1
158 189 1
158 186 1
158 179 1
158 160 1
158 187 1
158 184 1
158 163 1
158 165 1
158 177 1
158 195 1
159 192 1
159 198 1
159 193 1
159 189 1
159 178 1
159 174 1
160 164 1
160 188 1
160 184 1
160 174 1
160 180 1
160 183 1
160 177 1
160 179 1
161 191 1
161 188 1
161 167 1
161 199 1
161 177 1
161 178 1
162 186 1
162 170 1
162 178 1
162 195 1
162 168 1
162 172 1
162 171 1
162 200 1
162 196 1
162 174 1
162 175 1
163 189 1
163 172 1
163 193 1
163 165 1
163 190 1
164 177 1
164 167 1
164 198 1
164 172 1
164 197 1
164 173 1
164 170 1
164 196 1
165 178 1
165 179 1
165 184 1
165 200 1
165 181 1
165 191 1
165 180 1
166 197 1
166 192 1
166 199 1
166 180 1
167 180 1
167 196 1
167 198 1
167 184 1
167 186 1
167 188 1
167 195 1
167 191 1
168 195 1
168 187 1
168 170 1
169 197 1
169 194 1
169 173 1
169 182 1
169 193 1
169 178 1
170 200 1
170 197 1
170 190 1
170 180 1
170 172 1
170 173 1
170 182 1
170 176 1
171 192 1
171 197 1
171 198 1
171 189 1
171 185 1
171 172 1
171 183 1
171 173 1
171 176 1
171 195 1
172 186 1
172 195 1
172 183 1
172 178 1
172 199 1
172 196 1
173 175 1
173 191 1
173 198 1
173 185 1
173 197 1
173 183 1
173 184 1
173 182 1
173 200 1
174 191 1
174 185 1
174 193 1
174 197 1
175 185 1
175 187 1
175 188 1
175 193 1
175 192 1
175 189 1
176 189 1
176 179 1
177 188 1
177 193 1
177 191 1
177 189 1
177 190 1
178 181 1
178 196 1
179 196 1
179 194 1
179 182 1
180 196 1
180 189 1
180 200 1
181 182 1
181 185 1
181 183 1
182 193 1
182 194 1
183 199 1
183 200 1
183 194 1
183 189 1
184 191 1
185 186 1
185 196 1
185 189 1
185 188 1
186 190 1
186 196 1
186 194 1
186 197 1
187 192 1
187 198 1
187 190 1
187 196 1
187 194 1
188 193 1
188 199 1
189 192 1
190 197 1
190 199 1
190 191 1
190 196 1
190 192 1
191 199 1
193 197 1
193 198 1
195 197 1
195 199 1
196 197 1
197 199 1
197 200 1
199 200 1
